300
0 1 0
1 2 0
2 2 1
3 3 0
4 3 1
5 3 2
6 4 0
7 4 1
8 4 2
9 4 3
10 5 0
11 5 1
12 5 2
13 5 3
14 5 4
15 6 0
16 6 1
17 6 2
18 6 3
19 6 4
20 6 5
21 7 0
22 7 1
23 7 2
24 7 3
25 7 4
26 7 5
27 7 6
28 8 0
29 8 1
30 8 2
31 8 3
32 8 4
33 8 5
34 8 6
35 8 7
36 9 0
37 9 1
38 9 2
39 9 3
40 9 4
41 9 5
42 9 6
43 9 7
44 9 8
45 10 0
46 10 1
47 10 2
48 10 3
49 10 4
50 10 5
51 10 6
52 10 7
53 10 8
54 10 9
55 11 0
56 11 1
57 11 2
58 11 3
59 11 4
60 11 5
61 11 6
62 11 7
63 11 8
64 11 9
65 11 10
66 12 0
67 12 1
68 12 2
69 12 3
70 12 4
71 12 5
72 12 6
73 12 7
74 12 8
75 12 9
76 12 10
77 12 11
78 13 0
79 13 1
80 13 2
81 13 3
82 13 4
83 13 5
84 13 6
85 13 7
86 13 8
87 13 9
88 13 10
89 13 11
90 13 12
91 14 0
92 14 1
93 14 2
94 14 3
95 14 4
96 14 5
97 14 6
98 14 7
99 14 8
100 14 9
101 14 10
102 14 11
103 14 12
104 14 13
105 15 0
106 15 1
107 15 2
108 15 3
109 15 4
110 15 5
111 15 6
112 15 7
113 15 8
114 15 9
115 15 10
116 15 11
117 15 12
118 15 13
119 15 14
120 16 0
121 16 1
122 16 2
123 16 3
124 16 4
125 16 5
126 16 6
127 16 7
128 16 8
129 16 9
130 16 10
131 16 11
132 16 12
133 16 13
134 16 14
135 16 15
136 17 0
137 17 1
138 17 2
139 17 3
140 17 4
141 17 5
142 17 6
143 17 7
144 17 8
145 17 9
146 17 10
147 17 11
148 17 12
149 17 13
150 17 14
151 17 15
152 17 16
153 18 0
154 18 1
155 18 2
156 18 3
157 18 4
158 18 5
159 18 6
160 18 7
161 18 8
162 18 9
163 18 10
164 18 11
165 18 12
166 18 13
167 18 14
168 18 15
169 18 16
170 18 17
171 19 0
172 19 1
173 19 2
174 19 3
175 19 4
176 19 5
177 19 6
178 19 7
179 19 8
180 19 9
181 19 10
182 19 11
183 19 12
184 19 13
185 19 14
186 19 15
187 19 16
188 19 17
189 19 18
190 20 0
191 20 1
192 20 2
193 20 3
194 20 4
195 20 5
196 20 6
197 20 7
198 20 8
199 20 9
200 20 10
201 20 11
202 20 12
203 20 13
204 20 14
205 20 15
206 20 16
207 20 17
208 20 18
209 20 19
210 21 0
211 21 1
212 21 2
213 21 3
214 21 4
215 21 5
216 21 6
217 21 7
218 21 8
219 21 9
220 21 10
221 21 11
222 21 12
223 21 13
224 21 14
225 21 15
226 21 16
227 21 17
228 21 18
229 21 19
230 21 20
231 22 0
232 22 1
233 22 2
234 22 3
235 22 4
236 22 5
237 22 6
238 22 7
239 22 8
240 22 9
241 22 10
242 22 11
243 22 12
244 22 13
245 22 14
246 22 15
247 22 16
248 22 17
249 22 18
250 22 19
251 22 20
252 22 21
253 23 0
254 23 1
255 23 2
256 23 3
257 23 4
258 23 5
259 23 6
260 23 7
261 23 8
262 23 9
263 23 10
264 23 11
265 23 12
266 23 13
267 23 14
268 23 15
269 23 16
270 23 17
271 23 18
272 23 19
273 23 20
274 23 21
275 23 22
276 24 0
277 24 1
278 24 2
279 24 3
280 24 4
281 24 5
282 24 6
283 24 7
284 24 8
285 24 9
286 24 10
287 24 11
288 24 12
289 24 13
290 24 14
291 24 15
292 24 16
293 24 17
294 24 18
295 24 19
296 24 20
297 24 21
298 24 22
299 24 23
